c File: flat50_3_0.col
c
c SOURCE: Joseph Culberson (joe@cs.ualberta.ca)
c DESCRIPTION: Quasi-random coloring problem
c              generated with flatness = 0
c                             probability = 0.139
c                             known coloring = 3
c                             random seed = 1950
c              Creation Date:  Tue Jun  9 12:21:55 1998
c Maximum degree = 8 Minimum degree = 1
c p edge 50 115
c cnf created by edge2cnf
p cnf 150 545
-1 -2 0
-1 -3 0
-2 -3 0
1 2 3 0
-4 -5 0
-4 -6 0
-5 -6 0
4 5 6 0
-7 -8 0
-7 -9 0
-8 -9 0
7 8 9 0
-10 -11 0
-10 -12 0
-11 -12 0
10 11 12 0
-13 -14 0
-13 -15 0
-14 -15 0
13 14 15 0
-16 -17 0
-16 -18 0
-17 -18 0
16 17 18 0
-19 -20 0
-19 -21 0
-20 -21 0
19 20 21 0
-22 -23 0
-22 -24 0
-23 -24 0
22 23 24 0
-25 -26 0
-25 -27 0
-26 -27 0
25 26 27 0
-28 -29 0
-28 -30 0
-29 -30 0
28 29 30 0
-31 -32 0
-31 -33 0
-32 -33 0
31 32 33 0
-34 -35 0
-34 -36 0
-35 -36 0
34 35 36 0
-37 -38 0
-37 -39 0
-38 -39 0
37 38 39 0
-40 -41 0
-40 -42 0
-41 -42 0
40 41 42 0
-43 -44 0
-43 -45 0
-44 -45 0
43 44 45 0
-46 -47 0
-46 -48 0
-47 -48 0
46 47 48 0
-49 -50 0
-49 -51 0
-50 -51 0
49 50 51 0
-52 -53 0
-52 -54 0
-53 -54 0
52 53 54 0
-55 -56 0
-55 -57 0
-56 -57 0
55 56 57 0
-58 -59 0
-58 -60 0
-59 -60 0
58 59 60 0
-61 -62 0
-61 -63 0
-62 -63 0
61 62 63 0
-64 -65 0
-64 -66 0
-65 -66 0
64 65 66 0
-67 -68 0
-67 -69 0
-68 -69 0
67 68 69 0
-70 -71 0
-70 -72 0
-71 -72 0
70 71 72 0
-73 -74 0
-73 -75 0
-74 -75 0
73 74 75 0
-76 -77 0
-76 -78 0
-77 -78 0
76 77 78 0
-79 -80 0
-79 -81 0
-80 -81 0
79 80 81 0
-82 -83 0
-82 -84 0
-83 -84 0
82 83 84 0
-85 -86 0
-85 -87 0
-86 -87 0
85 86 87 0
-88 -89 0
-88 -90 0
-89 -90 0
88 89 90 0
-91 -92 0
-91 -93 0
-92 -93 0
91 92 93 0
-94 -95 0
-94 -96 0
-95 -96 0
94 95 96 0
-97 -98 0
-97 -99 0
-98 -99 0
97 98 99 0
-100 -101 0
-100 -102 0
-101 -102 0
100 101 102 0
-103 -104 0
-103 -105 0
-104 -105 0
103 104 105 0
-106 -107 0
-106 -108 0
-107 -108 0
106 107 108 0
-109 -110 0
-109 -111 0
-110 -111 0
109 110 111 0
-112 -113 0
-112 -114 0
-113 -114 0
112 113 114 0
-115 -116 0
-115 -117 0
-116 -117 0
115 116 117 0
-118 -119 0
-118 -120 0
-119 -120 0
118 119 120 0
-121 -122 0
-121 -123 0
-122 -123 0
121 122 123 0
-124 -125 0
-124 -126 0
-125 -126 0
124 125 126 0
-127 -128 0
-127 -129 0
-128 -129 0
127 128 129 0
-130 -131 0
-130 -132 0
-131 -132 0
130 131 132 0
-133 -134 0
-133 -135 0
-134 -135 0
133 134 135 0
-136 -137 0
-136 -138 0
-137 -138 0
136 137 138 0
-139 -140 0
-139 -141 0
-140 -141 0
139 140 141 0
-142 -143 0
-142 -144 0
-143 -144 0
142 143 144 0
-145 -146 0
-145 -147 0
-146 -147 0
145 146 147 0
-148 -149 0
-148 -150 0
-149 -150 0
148 149 150 0
-100 -1 0
-101 -2 0
-102 -3 0
-103 -1 0
-104 -2 0
-105 -3 0
-112 -1 0
-113 -2 0
-114 -3 0
-118 -1 0
-119 -2 0
-120 -3 0
-142 -1 0
-143 -2 0
-144 -3 0
-67 -4 0
-68 -5 0
-69 -6 0
-118 -4 0
-119 -5 0
-120 -6 0
-124 -4 0
-125 -5 0
-126 -6 0
-139 -4 0
-140 -5 0
-141 -6 0
-52 -7 0
-53 -8 0
-54 -9 0
-67 -7 0
-68 -8 0
-69 -9 0
-82 -7 0
-83 -8 0
-84 -9 0
-112 -7 0
-113 -8 0
-114 -9 0
-121 -7 0
-122 -8 0
-123 -9 0
-64 -10 0
-65 -11 0
-66 -12 0
-109 -10 0
-110 -11 0
-111 -12 0
-130 -10 0
-131 -11 0
-132 -12 0
-55 -13 0
-56 -14 0
-57 -15 0
-91 -13 0
-92 -14 0
-93 -15 0
-124 -13 0
-125 -14 0
-126 -15 0
-85 -16 0
-86 -17 0
-87 -18 0
-94 -16 0
-95 -17 0
-96 -18 0
-106 -16 0
-107 -17 0
-108 -18 0
-130 -16 0
-131 -17 0
-132 -18 0
-136 -16 0
-137 -17 0
-138 -18 0
-142 -16 0
-143 -17 0
-144 -18 0
-70 -19 0
-71 -20 0
-72 -21 0
-91 -19 0
-92 -20 0
-93 -21 0
-118 -19 0
-119 -20 0
-120 -21 0
-64 -22 0
-65 -23 0
-66 -24 0
-70 -22 0
-71 -23 0
-72 -24 0
-82 -22 0
-83 -23 0
-84 -24 0
-139 -22 0
-140 -23 0
-141 -24 0
-64 -25 0
-65 -26 0
-66 -27 0
-127 -25 0
-128 -26 0
-129 -27 0
-145 -25 0
-146 -26 0
-147 -27 0
-79 -28 0
-80 -29 0
-81 -30 0
-91 -28 0
-92 -29 0
-93 -30 0
-145 -28 0
-146 -29 0
-147 -30 0
-52 -31 0
-53 -32 0
-54 -33 0
-58 -31 0
-59 -32 0
-60 -33 0
-97 -31 0
-98 -32 0
-99 -33 0
-118 -31 0
-119 -32 0
-120 -33 0
-145 -31 0
-146 -32 0
-147 -33 0
-61 -34 0
-62 -35 0
-63 -36 0
-64 -34 0
-65 -35 0
-66 -36 0
-67 -34 0
-68 -35 0
-69 -36 0
-94 -34 0
-95 -35 0
-96 -36 0
-127 -34 0
-128 -35 0
-129 -36 0
-136 -34 0
-137 -35 0
-138 -36 0
-139 -34 0
-140 -35 0
-141 -36 0
-148 -34 0
-149 -35 0
-150 -36 0
-76 -37 0
-77 -38 0
-78 -39 0
-94 -37 0
-95 -38 0
-96 -39 0
-124 -37 0
-125 -38 0
-126 -39 0
-130 -37 0
-131 -38 0
-132 -39 0
-142 -37 0
-143 -38 0
-144 -39 0
-55 -40 0
-56 -41 0
-57 -42 0
-67 -40 0
-68 -41 0
-69 -42 0
-124 -40 0
-125 -41 0
-126 -42 0
-148 -40 0
-149 -41 0
-150 -42 0
-55 -43 0
-56 -44 0
-57 -45 0
-85 -43 0
-86 -44 0
-87 -45 0
-100 -43 0
-101 -44 0
-102 -45 0
-145 -43 0
-146 -44 0
-147 -45 0
-73 -46 0
-74 -47 0
-75 -48 0
-76 -46 0
-77 -47 0
-78 -48 0
-85 -46 0
-86 -47 0
-87 -48 0
-100 -46 0
-101 -47 0
-102 -48 0
-112 -46 0
-113 -47 0
-114 -48 0
-136 -46 0
-137 -47 0
-138 -48 0
-139 -46 0
-140 -47 0
-141 -48 0
-142 -46 0
-143 -47 0
-144 -48 0
-52 -49 0
-53 -50 0
-54 -51 0
-55 -49 0
-56 -50 0
-57 -51 0
-61 -49 0
-62 -50 0
-63 -51 0
-94 -49 0
-95 -50 0
-96 -51 0
-103 -52 0
-104 -53 0
-105 -54 0
-118 -52 0
-119 -53 0
-120 -54 0
-133 -52 0
-134 -53 0
-135 -54 0
-142 -52 0
-143 -53 0
-144 -54 0
-118 -55 0
-119 -56 0
-120 -57 0
-124 -55 0
-125 -56 0
-126 -57 0
-127 -55 0
-128 -56 0
-129 -57 0
-139 -55 0
-140 -56 0
-141 -57 0
-142 -58 0
-143 -59 0
-144 -60 0
-109 -61 0
-110 -62 0
-111 -63 0
-139 -61 0
-140 -62 0
-141 -63 0
-106 -64 0
-107 -65 0
-108 -66 0
-118 -64 0
-119 -65 0
-120 -66 0
-112 -67 0
-113 -68 0
-114 -69 0
-124 -67 0
-125 -68 0
-126 -69 0
-136 -70 0
-137 -71 0
-138 -72 0
-112 -73 0
-113 -74 0
-114 -75 0
-115 -73 0
-116 -74 0
-117 -75 0
-124 -73 0
-125 -74 0
-126 -75 0
-106 -76 0
-107 -77 0
-108 -78 0
-136 -76 0
-137 -77 0
-138 -78 0
-142 -76 0
-143 -77 0
-144 -78 0
-124 -79 0
-125 -80 0
-126 -81 0
-127 -79 0
-128 -80 0
-129 -81 0
-145 -79 0
-146 -80 0
-147 -81 0
-112 -82 0
-113 -83 0
-114 -84 0
-139 -82 0
-140 -83 0
-141 -84 0
-112 -85 0
-113 -86 0
-114 -87 0
-139 -85 0
-140 -86 0
-141 -87 0
-148 -85 0
-149 -86 0
-150 -87 0
-109 -88 0
-110 -89 0
-111 -90 0
-118 -88 0
-119 -89 0
-120 -90 0
-133 -88 0
-134 -89 0
-135 -90 0
-145 -91 0
-146 -92 0
-147 -93 0
-121 -94 0
-122 -95 0
-123 -96 0
-103 -97 0
-104 -98 0
-105 -99 0
-133 -97 0
-134 -98 0
-135 -99 0
-145 -100 0
-146 -101 0
-147 -102 0
